# 50324
param k := 6;
param n := 60;
param s := 1;
set E :=  (0,4) (0,24) (1,5) (1,19) (1,41) (1,50) (2,13) (3,22) (4,20) (6,8) (6,20) (7,16) (9,34) (9,38) (9,55) (10,40) (11,12) (11,28) (11,30) (11,48) (13,20) (13,25) (13,51) (14,31) (14,38) (15,22) (15,37) (15,43) (15,48) (16,24) (16,26) (17,41) (17,58) (18,55) (19,42) (19,49) (21,53) (22,55) (23,40) (25,49) (27,58) (28,35) (29,35) (29,38) (30,52) (30,54) (32,36) (32,37) (32,53) (32,58) (32,59) (33,48) (35,44) (36,56) (38,57) (39,49) (40,41) (40,46) (40,55) (42,47) (45,49);